10
1 0 1
2 0 5
2 1 4
3 0 8
3 1 4
3 2 1
4 0 7
4 1 4
4 2 3
4 3 7
5 0 8
5 1 3
5 2 3
5 3 6
5 4 5
6 0 5
6 1 1
6 2 8
6 3 8
6 4 7
6 5 6
7 0 4
7 1 1
7 2 4
7 3 3
7 4 2
7 5 1
7 6 6
8 0 1
8 1 2
8 2 2
8 3 5
8 4 1
8 5 3
8 6 6
8 7 6
9 0 7
9 1 4
9 2 6
9 3 1
9 4 2
9 5 6
9 6 1
9 7 3
9 8 6
